NAME: line_30_30
TYPE: TSP
COMMENT: srandom_30_30
DIMENSION: 30
EDGE_WEIGHT_TYPE: EUC_2D
NODE_COORD_SECTION
1 4525 4124
2 4567 1212
3 4900 3211
4 4648 2178
5 753 656
6 1141 1125
7 4882 469
8 4927 3186
9 2882 4375
10 4551 1567
11 299 1118
12 4561 1676
13 2509 4779
14 1528 913
15 1613 1208
16 4418 1130
17 2376 2387
18 204 2889
19 151 108
20 3143 766
21 4270 3665
22 3242 2990
23 890 3623
24 3928 3430
25 1022 1765
26 2731 807
27 3026 4773
28 4174 414
29 768 1084
30 2312 1956
